\ This file has been generated by DOcplex
\ ENCODING=ISO-8859-1
\Problem name: vqe_penalized_qubo

Minimize
 obj: - 37000 x1 - 37000 x2 - 37000 x3 - 37000 x4 - 37000 x5 - 37000 x6
      - 37000 x7 - 37000 x8 - 37000 x9 - 37000 x10 - 37000 x11 - 37000 x12
      - 37000 x13 - 37000 x14 - 37000 x15 - 37000 x16 - 37000 x17 - 37000 x18
      - 37000 x19 + [ 4000 x1*x2 + 4000 x1*x3 + 4000 x1*x4 + 4000 x1*x5
      + 4000 x1*x6 + 4000 x1*x7 + 4000 x1*x8 + 4000 x1*x9 + 4000 x1*x10
      + 4000 x1*x11 + 4000 x1*x12 + 4000 x1*x13 + 4000 x1*x14 + 4000 x1*x15
      + 4000 x1*x16 + 4000 x1*x17 + 4000 x1*x18 + 4000 x1*x19 + 4000 x2*x3
      + 4000 x2*x4 + 4000 x2*x5 + 4000 x2*x6 + 4000 x2*x7 + 4000 x2*x8
      + 4000 x2*x9 + 4000 x2*x10 + 4000 x2*x11 + 4000 x2*x12 + 4000 x2*x13
      + 4000 x2*x14 + 4000 x2*x15 + 4000 x2*x16 + 4000 x2*x17 + 4000 x2*x18
      + 4000 x2*x19 + 4000 x3*x4 + 4000 x3*x5 + 4000 x3*x6 + 4000 x3*x7
      + 4000 x3*x8 + 4000 x3*x9 + 4000 x3*x10 + 4000 x3*x11 + 4000 x3*x12
      + 4000 x3*x13 + 4000 x3*x14 + 4000 x3*x15 + 4000 x3*x16 + 4000 x3*x17
      + 4000 x3*x18 + 4000 x3*x19 + 4000 x4*x5 + 4000 x4*x6 + 4000 x4*x7
      + 4000 x4*x8 + 4000 x4*x9 + 4000 x4*x10 + 4000 x4*x11 + 4000 x4*x12
      + 4000 x4*x13 + 4000 x4*x14 + 4000 x4*x15 + 4000 x4*x16 + 4000 x4*x17
      + 4000 x4*x18 + 4000 x4*x19 + 4000 x5*x6 + 4000 x5*x7 + 4000 x5*x8
      + 4000 x5*x9 + 4000 x5*x10 + 4000 x5*x11 + 4000 x5*x12 + 4000 x5*x13
      + 4000 x5*x14 + 4000 x5*x15 + 4000 x5*x16 + 4000 x5*x17 + 4000 x5*x18
      + 4000 x5*x19 + 4000 x6*x7 + 4000 x6*x8 + 4000 x6*x9 + 4000 x6*x10
      + 4000 x6*x11 + 4000 x6*x12 + 4000 x6*x13 + 4000 x6*x14 + 4000 x6*x15
      + 4000 x6*x16 + 4000 x6*x17 + 4000 x6*x18 + 4000 x6*x19 + 4000 x7*x8
      + 4000 x7*x9 + 4000 x7*x10 + 4000 x7*x11 + 4000 x7*x12 + 4000 x7*x13
      + 4000 x7*x14 + 4000 x7*x15 + 4000 x7*x16 + 4000 x7*x17 + 4000 x7*x18
      + 4000 x7*x19 + 4000 x8*x9 + 4000 x8*x10 + 4000 x8*x11 + 4000 x8*x12
      + 4000 x8*x13 + 4000 x8*x14 + 4000 x8*x15 + 4000 x8*x16 + 4000 x8*x17
      + 4000 x8*x18 + 4000 x8*x19 + 4000 x9*x10 + 4000 x9*x11 + 4000 x9*x12
      + 4000 x9*x13 + 4000 x9*x14 + 4000 x9*x15 + 4000 x9*x16 + 4000 x9*x17
      + 4000 x9*x18 + 4000 x9*x19 + 4000 x10*x11 + 4000 x10*x12 + 4000 x10*x13
      + 4000 x10*x14 + 4000 x10*x15 + 4000 x10*x16 + 4000 x10*x17 + 4000 x10*x18
      + 4000 x10*x19 + 4000 x11*x12 + 4000 x11*x13 + 4000 x11*x14 + 4000 x11*x15
      + 4000 x11*x16 + 4000 x11*x17 + 4000 x11*x18 + 4000 x11*x19 + 4000 x12*x13
      + 4000 x12*x14 + 4000 x12*x15 + 4000 x12*x16 + 4000 x12*x17 + 4000 x12*x18
      + 4000 x12*x19 + 4000 x13*x14 + 4000 x13*x15 + 4000 x13*x16 + 4000 x13*x17
      + 4000 x13*x18 + 4000 x13*x19 + 4000 x14*x15 + 4000 x14*x16 + 4000 x14*x17
      + 4000 x14*x18 + 4000 x14*x19 + 4000 x15*x16 + 4000 x15*x17 + 4000 x15*x18
      + 4000 x15*x19 + 4000 x16*x17 + 4000 x16*x18 + 4000 x16*x19 + 4000 x17*x18
      + 4000 x17*x19 + 4000 x18*x19 ]/2
Subject To

Bounds
 0 <= x1 <= 1
 0 <= x2 <= 1
 0 <= x3 <= 1
 0 <= x4 <= 1
 0 <= x5 <= 1
 0 <= x6 <= 1
 0 <= x7 <= 1
 0 <= x8 <= 1
 0 <= x9 <= 1
 0 <= x10 <= 1
 0 <= x11 <= 1
 0 <= x12 <= 1
 0 <= x13 <= 1
 0 <= x14 <= 1
 0 <= x15 <= 1
 0 <= x16 <= 1
 0 <= x17 <= 1
 0 <= x18 <= 1
 0 <= x19 <= 1

Binaries
 x1 x2 x3 x4 x5 x6 x7 x8 x9 x10 x11 x12 x13 x14 x15 x16 x17 x18 x19
End
